1 0
4 0
46 2
2 0
21 6
26 13
3 5
5 13
7 17
8 17
12 19
24 21
31 23
9 13
16 21
39 21
6 13
25 20
10 26
37 32
17 32
20 34
22 32
40 38
15 34
18 41
34 45
35 45
47 49
56 46
11 23
13 41
32 46
53 49
33 38
44 45
48 53
19 52
43 61
61 65
66 65
38 53
30 38
42 68
65 77
51 73
71 82
70 82
36 21
59 48
76 60
14 90
73 100
54 100
81 104
23 50
27 62
28 63
29 66
69 76
74 80
78 90
94 94
82 95
52 100
49 82
60 88
77 101
100 98
67 106
75 114
86 114
84 112
112 121
57 124
62 134
64 134
83 138
89 134
68 139
80 147
63 121
58 139
91 149
92 158
111 158
41 149
45 162
79 161
85 165
90 166
95 170
96 159
103 170
55 176
113 176
115 184
50 189
72 198
104 205
88 176
109 185
110 187
93 185
118 198
98 188
102 197
105 209
97 105
99 204
114 209
119 212
87 219
108 229
101 229
106 239
107 239
117 241
120 251
116 245
121 255
122 264
